clingo version 5.4.1
Reading from provaASP2.lp
Solving...
Answer: 1
assign(1,15,1) assign(2,6,3) assign(3,13,1) assign(4,16,1) assign(5,16,1) assign(6,14,1) assign(7,13,1) assign(8,10,4) assign(9,6,3) assign(10,16,1) assign(11,16,1) assign(12,12,2) assign(13,11,4) assign(14,4,4) assign(15,6,3) assign(16,6,3) assign(17,14,1) assign(18,5,2) assign(19,8,2) assign(20,11,4) assign(21,4,4) assign(22,11,4) assign(23,2,4) assign(24,2,4) assign(25,7,3) count_seats_occupied(1,13,2) count_seats_occupied(1,14,2) count_seats_occupied(1,15,1) count_seats_occupied(1,16,4) count_seats_occupied(2,1,0) count_seats_occupied(2,5,1) count_seats_occupied(2,8,1) count_seats_occupied(2,12,1) count_seats_occupied(3,3,0) count_seats_occupied(3,6,4) count_seats_occupied(3,7,1) count_seats_occupied(3,9,0) count_seats_occupied(4,2,2) count_seats_occupied(4,4,2) count_seats_occupied(4,10,1) count_seats_occupied(4,11,3)
Optimization: 4
Answer: 2
assign(1,7,2) assign(2,3,4) assign(3,13,4) assign(4,1,1) assign(5,14,2) assign(6,6,1) assign(7,11,1) assign(8,9,2) assign(9,3,4) assign(10,14,2) assign(11,14,2) assign(12,5,1) assign(13,1,1) assign(14,4,4) assign(15,3,4) assign(16,3,4) assign(17,6,1) assign(18,13,4) assign(19,9,2) assign(20,15,2) assign(21,4,4) assign(22,5,1) assign(23,4,4) assign(24,4,4) assign(25,2,4) count_seats_occupied(1,1,2) count_seats_occupied(1,5,2) count_seats_occupied(1,6,2) count_seats_occupied(1,11,1) count_seats_occupied(2,7,1) count_seats_occupied(2,9,2) count_seats_occupied(2,14,3) count_seats_occupied(2,15,1) count_seats_occupied(3,8,0) count_seats_occupied(3,10,0) count_seats_occupied(3,12,0) count_seats_occupied(3,16,0) count_seats_occupied(4,2,1) count_seats_occupied(4,3,4) count_seats_occupied(4,4,4) count_seats_occupied(4,13,2)
Optimization: 3
Answer: 3
assign(1,3,3) assign(2,8,3) assign(3,3,3) assign(4,15,1) assign(5,5,1) assign(6,15,1) assign(7,12,1) assign(8,12,1) assign(9,8,3) assign(10,5,1) assign(11,5,1) assign(12,10,1) assign(13,12,1) assign(14,3,3) assign(15,8,3) assign(16,8,3) assign(17,15,1) assign(18,10,1) assign(19,10,1) assign(20,12,1) assign(21,10,1) assign(22,3,3) assign(23,7,3) assign(24,5,1) assign(25,7,3) count_seats_occupied(1,5,4) count_seats_occupied(1,10,4) count_seats_occupied(1,12,4) count_seats_occupied(1,15,3) count_seats_occupied(2,2,0) count_seats_occupied(2,4,0) count_seats_occupied(2,11,0) count_seats_occupied(2,16,0) count_seats_occupied(3,3,4) count_seats_occupied(3,7,2) count_seats_occupied(3,8,4) count_seats_occupied(3,9,0) count_seats_occupied(4,1,0) count_seats_occupied(4,6,0) count_seats_occupied(4,13,0) count_seats_occupied(4,14,0)
Optimization: 2
OPTIMUM FOUND

Models       : 3
  Optimum    : yes
Optimization : 2
Calls        : 1
Time         : 0.090s (Solving: 0.01s 1st Model: 0.01s Unsat: 0.00s)
CPU Time     : 0.083s
